
List of user-set options:

                                    Name   Value                used
                           compl_inf_tol = 1                     yes
                         constr_viol_tol = 1                     yes
                            dual_inf_tol = 1000                  yes
                           linear_solver = ma97                  yes
                              ma86_small = 1e-30                  no
                                  ma86_u = 0.0001                 no
                              ma97_order = best                  yes
                              ma97_small = 1e-30                 yes
                            ma97_switch1 = at_start              yes
                            ma97_switch2 = od_hd_reuse           yes
                                  ma97_u = 1e-06                 yes
                               ma97_umax = 0.5                   yes
                                max_iter = 1000                  yes
                    max_refinement_steps = 20                    yes
                    min_refinement_steps = 5                     yes
                                 mu_init = 1e-06                 yes
           mu_superlinear_decrease_power = 1.25                  yes
                   nlp_scaling_min_value = 1e-08                 yes
                        option_file_name = Preset_Case_12_pf.opt  yes
                             output_file = ./tmp/Preset_Case_12_pf.output  yes
                      print_user_options = yes                   yes
        required_infeasibility_reduction = 1                      no
                                     tol = 1e-08                 yes
                   warm_start_bound_frac = 1e-20                 yes
                   warm_start_bound_push = 1e-20                 yes
                   warm_start_init_point = yes                   yes
              warm_start_mult_bound_push = 1e-20                 yes
                warm_start_mult_init_max = 1e+40                 yes
             warm_start_slack_bound_frac = 1e-20                 yes
             warm_start_slack_bound_push = 1e-20                 yes

******************************************************************************
This program contains Ipopt, a library for large-scale nonlinear optimization.
 Ipopt is released as open source code under the Eclipse Public License (EPL).
         For more information visit http://projects.coin-or.org/Ipopt
******************************************************************************

This is Ipopt version 3.12.10, running with linear solver ma97.

Number of nonzeros in equality constraint Jacobian...:   123443
Number of nonzeros in inequality constraint Jacobian.:      213
Number of nonzeros in Lagrangian Hessian.............:    49069

Total number of variables............................:    31591
                     variables with only lower bounds:    12912
                variables with lower and upper bounds:    15130
                     variables with only upper bounds:        0
Total number of equality constraints.................:    31483
Total number of inequality constraints...............:       25
        inequality constraints with only lower bounds:        4
   inequality constraints with lower and upper bounds:        0
        inequality constraints with only upper bounds:       21

iter    objective    inf_pr   inf_du lg(mu)  ||d||  lg(rg) alpha_du alpha_pr  ls
   0 -5.2728755e+00 4.06e-03 1.02e+00  -6.0 0.00e+00    -  0.00e+00 0.00e+00   0
   1 -5.2721898e+00 2.20e-01 3.26e+00  -6.0 3.56e+05    -  9.34e-05 1.63e-04h  4
   2 -5.2736069e+00 2.20e-01 5.21e+01  -6.0 3.42e+03    -  2.28e-01 2.01e-03h  1
   3 -5.3806412e+00 1.12e+00 2.86e+02  -6.0 3.41e+03    -  1.66e-01 1.52e-01f  1
   4 -5.4625368e+00 1.95e+00 4.63e+02  -6.0 2.86e+03    -  4.27e-01 1.64e-01h  1
   5 -5.6437632e+00 9.26e+00 1.48e+03  -6.0 2.50e+03    -  4.11e-01 4.95e-01h  1
   6 -5.6426904e+00 8.69e+00 1.39e+03  -6.0 1.83e+02  -4.0 9.05e-04 6.15e-02h  1
   7 -5.6076007e+00 4.58e-01 1.45e+02  -6.0 7.69e+00  -4.5 2.98e-01 9.47e-01h  1
   8 -5.6140803e+00 7.71e-03 7.89e+01  -6.0 1.85e+01  -5.0 1.31e-01 1.00e+00f  1
   9 -5.6990434e+00 7.27e+00 2.51e+02  -6.0 1.78e+03    -  8.07e-02 3.99e-01h  1
iter    objective    inf_pr   inf_du lg(mu)  ||d||  lg(rg) alpha_du alpha_pr  ls
  10 -5.7026793e+00 7.13e+00 9.33e+03  -6.0 1.27e+02  -5.4 1.87e-01 1.87e-02h  1
  11 -5.7444526e+00 2.56e+01 7.68e+03  -6.0 1.19e+03    -  4.11e-02 1.00e+00f  1
  12 -5.7197219e+00 9.22e+00 3.85e+04  -6.0 1.23e+02  -5.9 8.70e-02 6.41e-01h  1
  13 -5.7110624e+00 1.50e+00 9.81e+03  -6.0 8.01e+01  -6.4 4.64e-01 8.38e-01h  1
  14 -5.7115628e+00 2.34e-01 9.16e+01  -6.0 7.38e+01  -6.9 2.89e-01 1.00e+00h  1
  15 -5.7206919e+00 1.42e+00 4.80e+01  -6.0 4.93e+02  -7.3 3.24e-01 4.32e-01h  1
  16 -5.7205299e+00 1.41e+00 1.47e+03  -6.0 1.79e+03  -7.8 5.28e-02 6.16e-03h  1
  17 -5.7214129e+00 1.35e+00 2.41e+04  -6.0 3.16e+02  -7.4 7.38e-01 4.83e-02h  1
  18 -5.7343647e+00 1.33e+00 8.11e+03  -6.0 2.15e+02  -7.0 5.16e-01 1.00e+00h  1
  19 -5.7480837e+00 1.08e+00 1.29e+05  -6.0 2.01e+02  -6.5 1.12e-01 9.32e-01h  1
iter    objective    inf_pr   inf_du lg(mu)  ||d||  lg(rg) alpha_du alpha_pr  ls
  20 -5.7508816e+00 1.97e+00 8.82e+02  -6.0 6.43e+02  -7.0 7.10e-01 1.00e+00H  1
  21 -5.7498451e+00 9.89e-03 7.13e-01  -6.0 1.43e+01  -5.7 1.00e+00 1.00e+00h  1
  22 -5.7545367e+00 9.20e-02 2.18e+00  -6.0 5.71e+01  -6.2 1.00e+00 1.00e+00h  1
  23 -5.7659040e+00 5.16e-01 3.00e+00  -6.0 1.35e+02  -6.6 1.00e+00 1.00e+00h  1
  24 -5.7746757e+00 5.71e-01 1.71e+01  -6.0 2.30e+02  -7.1 1.00e+00 4.39e-01h  1
  25 -5.7802242e+00 5.51e-01 1.33e+01  -6.0 3.93e+02  -7.6 5.08e-01 3.61e-01h  1
  26 -5.7770862e+00 2.59e-01 1.84e+01  -6.0 9.85e+01  -7.2 7.13e-01 9.58e-01h  1
  27 -5.7778228e+00 1.52e-02 5.54e-01  -6.0 6.19e+00  -4.9 8.41e-01 1.00e+00h  1
  28 -5.7776984e+00 6.31e-03 3.26e-02  -6.0 4.21e+00  -5.4 1.00e+00 1.00e+00h  1
  29 -5.7785689e+00 4.50e-02 1.53e-01  -6.0 1.27e+01  -5.9 1.00e+00 1.00e+00h  1
iter    objective    inf_pr   inf_du lg(mu)  ||d||  lg(rg) alpha_du alpha_pr  ls
  30 -5.7806719e+00 9.52e-02 5.90e-01  -6.0 3.01e+01  -6.4 1.00e+00 1.00e+00h  1
  31 -5.7844148e+00 1.36e-01 1.22e+00  -6.0 6.51e+01  -6.8 1.00e+00 1.00e+00h  1
  32 -5.7883838e+00 2.12e+00 1.31e+02  -6.0 4.97e+03    -  8.84e-02 1.25e-01h  1
  33 -5.7889965e+00 3.30e+01 6.11e+02  -6.0 1.33e+03    -  4.63e-01 1.00e+00h  1
  34 -5.7896610e+00 3.26e+01 6.23e+02  -6.0 1.10e+04    -  5.07e-02 1.22e-02h  1
  35 -5.7908924e+00 3.03e+01 7.74e+03  -6.0 2.73e+03    -  4.09e-01 3.54e-01h  1
  36 -5.7869475e+00 1.94e+01 5.85e+03  -6.0 1.07e+03    -  4.46e-01 3.64e-01h  1
  37 -5.7868594e+00 1.92e+01 5.78e+03  -6.0 4.27e+02    -  9.58e-01 1.14e-02h  7
  38 -5.7868250e+00 1.92e+01 5.77e+03  -6.0 1.09e+04    -  3.37e-02 1.01e-03h  9
  39 -5.7868237e+00 1.92e+01 5.77e+03  -6.0 4.27e+02    -  6.99e-01 1.79e-04h 13
iter    objective    inf_pr   inf_du lg(mu)  ||d||  lg(rg) alpha_du alpha_pr  ls
  40 -5.7868235e+00 1.92e+01 5.77e+03  -6.0 5.19e+02    -  7.87e-01 2.80e-05h 16
  41 -5.7868233e+00 1.92e+01 5.77e+03  -6.0 4.57e+02    -  1.78e-01 2.50e-05h 16
  42 -5.7794851e+00 2.58e+00 2.26e+03  -6.0 5.20e+02    -  8.08e-01 9.56e-01h  1
  43 -5.7814836e+00 2.40e+00 2.10e+03  -6.0 9.94e+02    -  8.45e-01 7.33e-02h  1
  44 -5.7785322e+00 7.33e-01 1.50e+03  -6.0 2.59e+02  -7.3 3.72e-02 8.60e-01h  1
  45 -5.7995921e+00 2.24e+00 5.50e+03  -6.0 2.80e+03    -  7.30e-02 3.29e-01h  1
  46 -5.7994667e+00 2.20e+00 5.41e+03  -6.0 1.45e+02  -6.9 3.76e-01 1.66e-02h  1
  47 -5.7978210e+00 1.95e+00 4.77e+03  -6.0 2.58e+00  -3.8 7.11e-01 1.18e-01h  1
  48 -5.7863163e+00 1.18e-02 2.50e+02  -6.0 1.73e+00  -4.2 1.00e+00 1.00e+00h  1
  49 -5.7865737e+00 9.15e-04 2.02e-01  -6.0 2.84e+00  -4.7 1.00e+00 1.00e+00h  1
iter    objective    inf_pr   inf_du lg(mu)  ||d||  lg(rg) alpha_du alpha_pr  ls
  50 -5.7872275e+00 9.08e-03 2.71e-02  -6.0 8.36e+00  -5.2 1.00e+00 1.00e+00h  1
  51 -5.7889477e+00 1.22e-01 3.23e-02  -6.0 2.36e+01  -5.7 1.00e+00 1.00e+00h  1
  52 -5.7930528e+00 7.71e-02 2.85e-01  -6.0 5.98e+01  -6.1 9.27e-01 1.00e+00h  1
  53 -5.7999870e+00 6.69e-01 3.23e+00  -6.0 1.19e+02  -6.6 1.00e+00 1.00e+00h  1
  54 -5.8055897e+00 7.44e-01 8.74e+00  -6.0 1.51e+02  -7.1 1.00e+00 9.42e-01h  1
  55 -5.8077791e+00 1.78e-01 2.04e+01  -6.0 2.16e+02  -7.6 1.00e+00 1.00e+00h  1
  56 -5.8070437e+00 8.72e-03 4.37e-01  -6.0 1.15e+01  -6.2 1.00e+00 1.00e+00h  1
  57 -5.8074149e+00 1.79e-02 6.23e-01  -6.0 2.77e+01  -6.7 1.00e+00 1.00e+00h  1
  58 -5.8082094e+00 2.23e-02 4.94e+00  -6.0 7.44e+01  -7.2 1.00e+00 1.00e+00h  1
  59 -5.8097544e+00 8.60e-02 3.18e+01  -6.0 1.78e+02  -7.7 1.00e+00 1.00e+00h  1
iter    objective    inf_pr   inf_du lg(mu)  ||d||  lg(rg) alpha_du alpha_pr  ls
  60 -5.8132206e+00 9.79e-01 2.27e+02  -6.0 4.86e+02  -8.2 2.60e-01 1.00e+00h  1
  61 -5.8209217e+00 3.41e+01 1.22e+03  -6.0 2.63e+01  -5.9 1.54e-01 5.15e-01h  1
  62 -5.8167089e+00 1.81e+00 7.63e+01  -6.0 3.62e+01  -6.4 1.00e+00 1.00e+00h  1
  63 -5.8213317e+00 3.26e-01 7.27e+01  -6.0 1.73e+02  -6.9 7.11e-01 2.95e-01h  1
  64 -5.8396194e+00 8.31e+00 1.03e+03  -6.0 6.51e+02  -7.4 8.60e-01 3.83e-01h  1
  65 -5.9141090e+00 1.60e+01 2.17e+03  -6.0 2.78e+03    -  2.87e-01 4.59e-01h  1
  66 -5.9225761e+00 1.46e+01 1.96e+03  -6.0 2.25e+03    -  7.25e-01 9.94e-02h  1
  67 -5.9627532e+00 3.40e+00 9.03e+02  -6.0 1.65e+03    -  4.78e-01 7.43e-01h  1
  68 -5.9595254e+00 2.23e+00 5.87e+02  -6.0 1.18e+03    -  1.00e+00 3.82e-01h  1
  69 -5.9470493e+00 2.44e-01 5.93e+01  -6.0 7.36e+02    -  5.52e-01 1.00e+00h  1
iter    objective    inf_pr   inf_du lg(mu)  ||d||  lg(rg) alpha_du alpha_pr  ls
  70 -5.9433800e+00 4.51e-02 7.15e-01  -6.0 5.31e+01    -  1.00e+00 1.00e+00h  1
  71 -5.9433719e+00 1.17e-05 8.09e-05  -6.0 8.10e-01    -  1.00e+00 1.00e+00h  1
  72 -5.9433719e+00 2.78e-09 1.76e-09  -6.0 1.32e-02    -  1.00e+00 1.00e+00h  1
  73 -5.9434969e+00 2.86e+00 5.47e+01  -7.5 5.61e+02    -  5.67e-01 7.56e-01h  1
  74 -5.9434910e+00 8.28e-01 3.53e+01  -7.5 1.73e+02    -  6.24e-01 8.32e-01h  1
  75 -5.9434858e+00 6.51e-02 3.17e-02  -7.5 3.75e+01    -  1.00e+00 1.00e+00h  1
  76 -5.9434857e+00 3.72e-02 7.51e-04  -7.5 1.17e+01    -  1.00e+00 1.00e+00h  1
  77 -5.9434857e+00 1.99e-05 6.43e-07  -7.5 3.26e-01    -  1.00e+00 1.00e+00h  1
  78 -5.9434857e+00 4.04e-08 1.25e-09  -7.5 1.44e-02    -  1.00e+00 1.00e+00h  1
  79 -5.9434871e+00 6.57e-03 6.77e-01  -9.0 2.09e+01    -  9.08e-01 8.34e-01h  1
iter    objective    inf_pr   inf_du lg(mu)  ||d||  lg(rg) alpha_du alpha_pr  ls
  80 -5.9434874e+00 2.01e-04 3.82e-01  -9.0 3.49e+00    -  9.14e-01 1.00e+00h  1
  81 -5.9434874e+00 3.80e-10 6.18e-09  -9.0 3.19e-03    -  1.00e+00 1.00e+00h  1

Number of Iterations....: 81

                                   (scaled)                 (unscaled)
Objective...............:  -4.6433495338594213e+00   -5.9434874033400593e+00
Dual infeasibility......:   6.1790291064658554e-09    7.9091572562762953e-09
Constraint violation....:   3.8013392433811077e-10    3.8013392433811077e-10
Complementarity.........:   1.4513176935048943e-09    1.8576866476862648e-09
Overall NLP error.......:   6.1790291064658554e-09    7.9091572562762953e-09


Number of objective function evaluations             = 146
Number of objective gradient evaluations             = 82
Number of equality constraint evaluations            = 146
Number of inequality constraint evaluations          = 146
Number of equality constraint Jacobian evaluations   = 82
Number of inequality constraint Jacobian evaluations = 82
Number of Lagrangian Hessian evaluations             = 81
Total CPU secs in IPOPT (w/o function evaluations)   =    222.342
Total CPU secs in NLP function evaluations           =      3.443

EXIT: Optimal Solution Found.
